p edge 60 167
e 1 8
e 1 11
e 1 55
e 1 58
e 1 59
e 2 10
e 2 14
e 2 17
e 2 28
e 2 31
e 2 41
e 2 43
e 2 48
e 2 54
e 2 59
e 3 7
e 3 19
e 3 32
e 3 38
e 4 6
e 4 7
e 4 9
e 4 18
e 4 23
e 4 48
e 5 10
e 5 17
e 5 21
e 5 24
e 5 51
e 5 56
e 6 11
e 6 13
e 6 16
e 6 17
e 6 32
e 7 11
e 7 58
e 8 20
e 8 37
e 8 39
e 8 40
e 9 18
e 9 32
e 9 33
e 9 39
e 9 54
e 10 28
e 10 40
e 10 47
e 10 48
e 10 49
e 10 54
e 11 17
e 11 26
e 11 32
e 11 35
e 11 53
e 12 14
e 12 18
e 12 19
e 12 29
e 12 34
e 12 40
e 12 54
e 13 20
e 13 30
e 13 49
e 14 18
e 14 20
e 14 33
e 14 45
e 14 50
e 14 51
e 15 20
e 15 31
e 15 34
e 15 59
e 16 34
e 16 38
e 17 18
e 17 19
e 17 23
e 17 50
e 17 52
e 18 48
e 18 53
e 19 20
e 19 23
e 19 49
e 19 50
e 19 60
e 20 27
e 20 43
e 21 29
e 21 40
e 21 60
e 22 25
e 22 29
e 22 33
e 22 36
e 22 38
e 22 50
e 23 29
e 23 53
e 24 36
e 24 42
e 25 26
e 25 29
e 25 36
e 25 48
e 25 56
e 26 27
e 26 46
e 27 39
e 27 59
e 28 37
e 28 42
e 28 44
e 28 51
e 29 30
e 30 32
e 30 52
e 30 56
e 31 38
e 31 40
e 31 55
e 32 41
e 32 48
e 32 51
e 33 36
e 33 37
e 33 56
e 34 47
e 35 39
e 35 41
e 35 59
e 37 46
e 38 50
e 39 42
e 39 51
e 39 52
e 39 56
e 39 59
e 40 43
e 40 48
e 40 50
e 42 43
e 43 44
e 44 45
e 44 49
e 45 50
e 45 53
e 45 56
e 45 58
e 46 47
e 46 56
e 46 58
e 47 49
e 47 58
e 48 59
e 50 59
e 51 55
e 52 59
e 54 57
e 54 60
e 57 59
